73	17	97	72	1	5	18	80	65	80
26	82	25	31	66	46	71	54	100	61
79	91	50	59	97	100	74	8	98	38
93	55	48	22	42	99	59	40	55	49
29	39	95	65	11	39	7	26	66	86
20	76	87	30	43	77	55	82	62	61
35	24	10	100	59	75	8	19	33	57
80	50	20	5	71	17	50	67	29	1
26	17	11	24	57	63	72	98	80	76
68	9	45	71	89	42	74	72	64	74
